p edge 100 2400
e 1 2
e 1 3
e 1 4
e 1 5
e 1 6
e 1 7
e 1 8
e 1 9
e 1 10
e 1 11
e 1 12
e 1 13
e 1 14
e 1 15
e 1 16
e 1 17
e 1 18
e 1 19
e 1 20
e 1 21
e 1 22
e 1 23
e 1 24
e 1 25
e 1 26
e 1 27
e 1 28
e 1 29
e 1 30
e 1 31
e 1 32
e 1 33
e 1 34
e 1 35
e 1 36
e 1 37
e 1 38
e 1 39
e 1 40
e 1 41
e 1 42
e 1 43
e 1 44
e 1 45
e 1 46
e 1 47
e 1 48
e 1 49
e 1 50
e 1 51
e 1 52
e 1 53
e 1 54
e 1 55
e 1 56
e 1 57
e 1 58
e 1 59
e 1 60
e 1 61
e 1 62
e 1 63
e 1 64
e 1 65
e 1 66
e 1 67
e 1 68
e 1 69
e 1 70
e 1 71
e 1 72
e 1 73
e 1 74
e 1 75
e 1 76
e 1 77
e 1 78
e 1 79
e 1 80
e 1 81
e 1 82
e 1 83
e 1 84
e 1 85
e 1 86
e 1 87
e 1 88
e 1 89
e 1 90
e 1 91
e 1 92
e 1 93
e 1 94
e 1 95
e 1 96
e 1 97
e 1 98
e 2 62
e 2 63
e 2 64
e 2 65
e 2 66
e 2 67
e 2 68
e 2 69
e 2 71
e 2 72
e 2 74
e 2 75
e 2 76
e 2 79
e 2 80
e 2 82
e 2 83
e 2 85
e 2 86
e 2 87
e 2 88
e 2 89
e 2 92
e 2 93
e 2 94
e 2 99
e 2 97
e 2 98
e 3 62
e 3 63
e 3 64
e 3 65
e 3 66
e 3 67
e 3 68
e 3 69
e 3 71
e 3 72
e 3 73
e 3 74
e 3 75
e 3 76
e 3 77
e 3 78
e 3 79
e 3 80
e 3 81
e 3 82
e 3 84
e 3 85
e 3 86
e 3 88
e 3 89
e 3 92
e 3 93
e 3 95
e 3 96
e 3 98
e 4 62
e 4 65
e 4 66
e 4 67
e 4 68
e 4 69
e 4 70
e 4 71
e 4 72
e 4 73
e 4 74
e 4 76
e 4 78
e 4 79
e 4 80
e 4 82
e 4 88
e 4 90
e 4 91
e 4 94
e 4 95
e 4 97
e 5 62
e 5 63
e 5 64
e 5 66
e 5 67
e 5 68
e 5 69
e 5 72
e 5 73
e 5 74
e 5 75
e 5 76
e 5 77
e 5 78
e 5 79
e 5 81
e 5 82
e 5 83
e 5 86
e 5 87
e 5 89
e 5 92
e 5 94
e 5 99
e 6 62
e 6 63
e 6 64
e 6 68
e 6 71
e 6 73
e 6 75
e 6 77
e 6 78
e 6 81
e 6 82
e 6 88
e 6 94
e 6 95
e 6 96
e 6 99
e 6 97
e 7 62
e 7 63
e 7 64
e 7 65
e 7 66
e 7 68
e 7 69
e 7 70
e 7 71
e 7 72
e 7 73
e 7 74
e 7 75
e 7 76
e 7 77
e 7 78
e 7 79
e 7 81
e 7 83
e 7 84
e 7 86
e 7 87
e 7 90
e 7 91
e 7 93
e 7 94
e 7 95
e 7 96
e 7 99
e 7 97
e 8 62
e 8 63
e 8 64
e 8 65
e 8 66
e 8 67
e 8 68
e 8 69
e 8 70
e 8 71
e 8 73
e 8 75
e 8 76
e 8 78
e 8 81
e 8 82
e 8 83
e 8 86
e 8 87
e 8 88
e 8 89
e 8 90
e 8 91
e 8 92
e 8 93
e 8 95
e 8 98
e 9 62
e 9 63
e 9 64
e 9 65
e 9 67
e 9 68
e 9 69
e 9 70
e 9 71
e 9 72
e 9 73
e 9 75
e 9 76
e 9 77
e 9 78
e 9 79
e 9 83
e 9 85
e 9 86
e 9 88
e 9 89
e 9 90
e 9 93
e 9 94
e 10 62
e 10 63
e 10 64
e 10 65
e 10 66
e 10 67
e 10 68
e 10 69
e 10 71
e 10 72
e 10 73
e 10 74
e 10 76
e 10 77
e 10 78
e 10 80
e 10 81
e 10 82
e 10 83
e 10 85
e 10 86
e 10 87
e 10 88
e 10 89
e 10 92
e 10 93
e 10 99
e 10 97
e 10 100
e 10 98
e 11 62
e 11 63
e 11 64
e 11 65
e 11 66
e 11 67
e 11 68
e 11 69
e 11 70
e 11 71
e 11 73
e 11 74
e 11 77
e 11 78
e 11 79
e 11 80
e 11 81
e 11 82
e 11 83
e 11 84
e 11 85
e 11 86
e 11 88
e 11 89
e 11 90
e 11 93
e 11 95
e 11 99
e 11 100
e 12 62
e 12 63
e 12 64
e 12 65
e 12 66
e 12 67
e 12 68
e 12 70
e 12 71
e 12 72
e 12 73
e 12 75
e 12 77
e 12 78
e 12 79
e 12 81
e 12 82
e 12 83
e 12 84
e 12 87
e 12 89
e 12 90
e 12 92
e 12 94
e 12 96
e 13 62
e 13 63
e 13 64
e 13 65
e 13 66
e 13 67
e 13 68
e 13 69
e 13 70
e 13 71
e 13 72
e 13 73
e 13 74
e 13 75
e 13 77
e 13 78
e 13 79
e 13 80
e 13 83
e 13 84
e 13 85
e 13 86
e 13 88
e 13 89
e 13 90
e 13 91
e 13 92
e 13 93
e 13 94
e 13 95
e 13 99
e 13 97
e 13 100
e 13 98
e 14 62
e 14 63
e 14 64
e 14 65
e 14 66
e 14 67
e 14 68
e 14 69
e 14 70
e 14 71
e 14 72
e 14 73
e 14 74
e 14 75
e 14 76
e 14 77
e 14 79
e 14 80
e 14 81
e 14 82
e 14 84
e 14 85
e 14 86
e 14 87
e 14 88
e 14 91
e 14 92
e 14 93
e 14 94
e 14 95
e 14 96
e 14 99
e 15 62
e 15 63
e 15 64
e 15 65
e 15 66
e 15 67
e 15 68
e 15 69
e 15 70
e 15 71
e 15 72
e 15 73
e 15 74
e 15 75
e 15 76
e 15 78
e 15 79
e 15 81
e 15 82
e 15 83
e 15 84
e 15 85
e 15 86
e 15 87
e 15 89
e 15 91
e 15 95
e 15 96
e 15 99
e 15 97
e 15 100
e 15 98
e 16 63
e 16 64
e 16 65
e 16 66
e 16 67
e 16 68
e 16 69
e 16 70
e 16 72
e 16 73
e 16 74
e 16 76
e 16 77
e 16 78
e 16 79
e 16 80
e 16 81
e 16 82
e 16 86
e 16 91
e 16 92
e 16 94
e 16 95
e 16 96
e 16 97
e 16 100
e 16 98
e 17 62
e 17 63
e 17 64
e 17 65
e 17 66
e 17 67
e 17 68
e 17 69
e 17 70
e 17 71
e 17 72
e 17 73
e 17 74
e 17 75
e 17 76
e 17 77
e 17 78
e 17 79
e 17 80
e 17 81
e 17 82
e 17 84
e 17 86
e 17 87
e 17 89
e 17 90
e 17 91
e 17 92
e 17 93
e 17 94
e 17 99
e 17 100
e 17 98
e 18 62
e 18 63
e 18 64
e 18 65
e 18 66
e 18 67
e 18 68
e 18 69
e 18 70
e 18 71
e 18 72
e 18 73
e 18 74
e 18 75
e 18 76
e 18 77
e 18 78
e 18 79
e 18 80
e 18 82
e 18 83
e 18 84
e 18 85
e 18 86
e 18 92
e 18 93
e 18 94
e 18 95
e 18 96
e 18 97
e 18 98
e 19 62
e 19 63
e 19 64
e 19 65
e 19 66
e 19 67
e 19 68
e 19 69
e 19 70
e 19 71
e 19 72
e 19 73
e 19 74
e 19 78
e 19 79
e 19 83
e 19 84
e 19 85
e 19 90
e 19 95
e 19 99
e 20 62
e 20 63
e 20 64
e 20 65
e 20 66
e 20 67
e 20 68
e 20 69
e 20 70
e 20 71
e 20 72
e 20 73
e 20 74
e 20 75
e 20 76
e 20 77
e 20 78
e 20 79
e 20 81
e 20 82
e 20 83
e 20 86
e 20 87
e 20 92
e 20 93
e 20 94
e 20 97
e 21 62
e 21 63
e 21 64
e 21 65
e 21 66
e 21 67
e 21 68
e 21 69
e 21 70
e 21 71
e 21 72
e 21 73
e 21 74
e 21 75
e 21 76
e 21 77
e 21 80
e 21 81
e 21 82
e 21 83
e 21 88
e 21 90
e 21 92
e 21 95
e 21 96
e 21 99
e 21 97
e 21 100
e 22 62
e 22 63
e 22 65
e 22 66
e 22 68
e 22 69
e 22 70
e 22 72
e 22 73
e 22 74
e 22 75
e 22 76
e 22 77
e 22 78
e 22 79
e 22 82
e 22 83
e 22 84
e 22 86
e 22 88
e 22 90
e 22 92
e 22 97
e 22 100
e 22 98
e 23 62
e 23 63
e 23 64
e 23 65
e 23 66
e 23 67
e 23 68
e 23 69
e 23 70
e 23 73
e 23 74
e 23 75
e 23 76
e 23 77
e 23 78
e 23 79
e 23 80
e 23 81
e 23 82
e 23 83
e 23 84
e 23 89
e 23 90
e 23 94
e 24 62
e 24 63
e 24 64
e 24 65
e 24 66
e 24 67
e 24 68
e 24 69
e 24 70
e 24 71
e 24 72
e 24 73
e 24 74
e 24 75
e 24 76
e 24 77
e 24 78
e 24 79
e 24 81
e 24 82
e 24 83
e 24 84
e 24 85
e 24 86
e 24 87
e 24 90
e 24 91
e 24 92
e 24 93
e 24 96
e 24 100
e 25 62
e 25 63
e 25 64
e 25 65
e 25 66
e 25 67
e 25 68
e 25 69
e 25 70
e 25 71
e 25 72
e 25 74
e 25 75
e 25 76
e 25 77
e 25 79
e 25 80
e 25 84
e 25 85
e 25 86
e 25 87
e 25 90
e 25 91
e 25 92
e 25 95
e 25 96
e 25 100
e 26 62
e 26 63
e 26 64
e 26 65
e 26 66
e 26 67
e 26 68
e 26 69
e 26 71
e 26 72
e 26 73
e 26 75
e 26 76
e 26 78
e 26 79
e 26 80
e 26 81
e 26 82
e 26 83
e 26 84
e 26 85
e 26 86
e 26 88
e 26 89
e 26 90
e 26 91
e 26 92
e 26 93
e 26 96
e 26 97
e 27 62
e 27 63
e 27 64
e 27 65
e 27 66
e 27 67
e 27 68
e 27 69
e 27 70
e 27 71
e 27 72
e 27 74
e 27 75
e 27 76
e 27 77
e 27 81
e 27 84
e 27 85
e 27 87
e 27 88
e 27 89
e 27 93
e 27 95
e 27 96
e 27 99
e 27 98
e 28 62
e 28 63
e 28 64
e 28 65
e 28 66
e 28 67
e 28 71
e 28 72
e 28 73
e 28 74
e 28 75
e 28 76
e 28 78
e 28 79
e 28 80
e 28 81
e 28 82
e 28 84
e 28 86
e 28 87
e 28 89
e 28 90
e 28 91
e 28 93
e 28 94
e 28 95
e 28 100
e 28 98
e 29 62
e 29 63
e 29 64
e 29 65
e 29 66
e 29 67
e 29 68
e 29 69
e 29 70
e 29 72
e 29 73
e 29 74
e 29 75
e 29 77
e 29 79
e 29 80
e 29 81
e 29 82
e 29 84
e 29 85
e 29 86
e 29 88
e 29 90
e 29 91
e 29 93
e 29 99
e 29 97
e 29 100
e 30 62
e 30 63
e 30 64
e 30 65
e 30 66
e 30 67
e 30 68
e 30 69
e 30 70
e 30 71
e 30 74
e 30 75
e 30 76
e 30 77
e 30 78
e 30 81
e 30 83
e 30 84
e 30 86
e 30 87
e 30 89
e 30 90
e 30 94
e 30 95
e 30 97
e 30 100
e 31 62
e 31 63
e 31 64
e 31 65
e 31 66
e 31 67
e 31 68
e 31 69
e 31 70
e 31 71
e 31 73
e 31 74
e 31 76
e 31 77
e 31 78
e 31 79
e 31 80
e 31 81
e 31 82
e 31 83
e 31 84
e 31 85
e 31 86
e 31 87
e 31 89
e 31 90
e 31 92
e 31 93
e 31 94
e 31 96
e 31 100
e 31 98
e 32 62
e 32 63
e 32 64
e 32 65
e 32 66
e 32 67
e 32 70
e 32 71
e 32 72
e 32 73
e 32 77
e 32 80
e 32 82
e 32 83
e 32 85
e 32 86
e 32 87
e 32 89
e 32 91
e 32 92
e 32 94
e 32 95
e 32 99
e 32 98
e 33 62
e 33 63
e 33 64
e 33 65
e 33 66
e 33 67
e 33 68
e 33 69
e 33 72
e 33 73
e 33 74
e 33 75
e 33 77
e 33 78
e 33 79
e 33 80
e 33 81
e 33 83
e 33 84
e 33 85
e 33 87
e 33 88
e 33 91
e 33 96
e 33 97
e 34 62
e 34 63
e 34 64
e 34 65
e 34 66
e 34 67
e 34 68
e 34 69
e 34 70
e 34 71
e 34 73
e 34 74
e 34 75
e 34 77
e 34 80
e 34 82
e 34 83
e 34 84
e 34 85
e 34 86
e 34 87
e 34 88
e 34 89
e 34 90
e 34 93
e 34 94
e 34 96
e 34 97
e 34 98
e 35 62
e 35 63
e 35 64
e 35 65
e 35 66
e 35 67
e 35 69
e 35 70
e 35 71
e 35 72
e 35 73
e 35 74
e 35 75
e 35 76
e 35 78
e 35 79
e 35 80
e 35 81
e 35 82
e 35 84
e 35 85
e 35 88
e 35 89
e 35 91
e 35 92
e 35 93
e 35 94
e 35 95
e 35 96
e 35 99
e 35 97
e 35 100
e 35 98
e 36 62
e 36 63
e 36 64
e 36 65
e 36 66
e 36 67
e 36 68
e 36 69
e 36 70
e 36 71
e 36 73
e 36 74
e 36 75
e 36 76
e 36 78
e 36 79
e 36 81
e 36 82
e 36 83
e 36 84
e 36 85
e 36 89
e 36 90
e 36 91
e 36 95
e 36 96
e 36 97
e 36 100
e 37 62
e 37 63
e 37 64
e 37 65
e 37 66
e 37 67
e 37 68
e 37 69
e 37 70
e 37 71
e 37 72
e 37 75
e 37 76
e 37 77
e 37 78
e 37 80
e 37 81
e 37 83
e 37 84
e 37 87
e 37 88
e 37 89
e 37 90
e 37 91
e 37 92
e 37 93
e 37 96
e 37 98
e 38 62
e 38 63
e 38 64
e 38 65
e 38 66
e 38 67
e 38 68
e 38 69
e 38 70
e 38 71
e 38 72
e 38 73
e 38 76
e 38 77
e 38 78
e 38 79
e 38 80
e 38 81
e 38 84
e 38 86
e 38 91
e 38 92
e 38 95
e 38 98
e 39 62
e 39 63
e 39 65
e 39 67
e 39 68
e 39 69
e 39 70
e 39 71
e 39 72
e 39 73
e 39 75
e 39 76
e 39 77
e 39 79
e 39 85
e 39 86
e 39 87
e 39 88
e 39 89
e 39 90
e 39 92
e 39 94
e 39 95
e 39 97
e 40 62
e 40 63
e 40 64
e 40 65
e 40 66
e 40 67
e 40 69
e 40 70
e 40 71
e 40 72
e 40 74
e 40 76
e 40 78
e 40 79
e 40 80
e 40 81
e 40 83
e 40 87
e 40 88
e 40 94
e 40 96
e 41 62
e 41 63
e 41 64
e 41 65
e 41 66
e 41 67
e 41 68
e 41 69
e 41 70
e 41 71
e 41 72
e 41 73
e 41 74
e 41 75
e 41 76
e 41 77
e 41 79
e 41 81
e 41 82
e 41 83
e 41 84
e 41 86
e 41 87
e 41 88
e 41 91
e 41 92
e 41 94
e 41 95
e 41 96
e 41 99
e 41 100
e 42 62
e 42 63
e 42 64
e 42 65
e 42 66
e 42 67
e 42 69
e 42 70
e 42 71
e 42 72
e 42 74
e 42 75
e 42 76
e 42 77
e 42 78
e 42 79
e 42 80
e 42 82
e 42 83
e 42 84
e 42 85
e 42 86
e 42 88
e 42 89
e 42 90
e 42 92
e 42 93
e 42 94
e 42 95
e 42 99
e 42 98
e 43 62
e 43 63
e 43 64
e 43 66
e 43 67
e 43 68
e 43 69
e 43 70
e 43 71
e 43 72
e 43 73
e 43 74
e 43 75
e 43 76
e 43 77
e 43 78
e 43 80
e 43 81
e 43 82
e 43 83
e 43 84
e 43 85
e 43 88
e 43 89
e 43 91
e 43 92
e 43 94
e 43 96
e 43 99
e 43 100
e 43 98
e 44 62
e 44 63
e 44 64
e 44 65
e 44 66
e 44 68
e 44 69
e 44 70
e 44 71
e 44 72
e 44 73
e 44 74
e 44 75
e 44 77
e 44 79
e 44 80
e 44 81
e 44 83
e 44 84
e 44 85
e 44 87
e 44 88
e 44 90
e 44 96
e 44 99
e 44 97
e 45 62
e 45 63
e 45 64
e 45 65
e 45 66
e 45 69
e 45 70
e 45 71
e 45 72
e 45 73
e 45 74
e 45 75
e 45 76
e 45 77
e 45 78
e 45 82
e 45 83
e 45 84
e 45 86
e 45 88
e 45 91
e 45 93
e 45 99
e 45 97
e 45 100
e 45 98
e 46 62
e 46 63
e 46 64
e 46 66
e 46 67
e 46 68
e 46 69
e 46 70
e 46 72
e 46 73
e 46 74
e 46 75
e 46 76
e 46 77
e 46 78
e 46 79
e 46 81
e 46 88
e 46 90
e 46 92
e 46 94
e 46 95
e 46 99
e 46 100
e 47 62
e 47 63
e 47 64
e 47 65
e 47 66
e 47 67
e 47 68
e 47 69
e 47 70
e 47 71
e 47 72
e 47 73
e 47 74
e 47 75
e 47 77
e 47 78
e 47 79
e 47 80
e 47 81
e 47 82
e 47 85
e 47 86
e 47 87
e 47 88
e 47 89
e 47 90
e 47 91
e 47 93
e 47 97
e 47 100
e 47 98
e 48 62
e 48 63
e 48 64
e 48 65
e 48 66
e 48 67
e 48 70
e 48 76
e 48 77
e 48 78
e 48 80
e 48 81
e 48 84
e 48 85
e 48 89
e 48 98
e 49 62
e 49 63
e 49 64
e 49 65
e 49 66
e 49 67
e 49 68
e 49 69
e 49 70
e 49 71
e 49 72
e 49 73
e 49 75
e 49 76
e 49 77
e 49 78
e 49 80
e 49 82
e 49 83
e 49 84
e 49 85
e 49 87
e 49 94
e 49 99
e 50 62
e 50 63
e 50 64
e 50 65
e 50 66
e 50 67
e 50 68
e 50 69
e 50 70
e 50 71
e 50 72
e 50 73
e 50 74
e 50 76
e 50 77
e 50 80
e 50 81
e 50 82
e 50 84
e 50 85
e 50 86
e 50 88
e 50 90
e 50 91
e 50 92
e 50 93
e 50 94
e 50 95
e 50 97
e 50 98
e 51 62
e 51 63
e 51 64
e 51 65
e 51 66
e 51 67
e 51 68
e 51 69
e 51 71
e 51 72
e 51 73
e 51 78
e 51 79
e 51 80
e 51 82
e 51 83
e 51 84
e 51 85
e 51 86
e 51 87
e 51 89
e 51 90
e 51 91
e 51 94
e 51 95
e 51 99
e 52 62
e 52 63
e 52 64
e 52 65
e 52 68
e 52 69
e 52 70
e 52 71
e 52 74
e 52 75
e 52 76
e 52 77
e 52 79
e 52 80
e 52 86
e 52 88
e 52 89
e 52 92
e 52 93
e 52 95
e 53 62
e 53 63
e 53 64
e 53 65
e 53 66
e 53 67
e 53 68
e 53 70
e 53 71
e 53 72
e 53 77
e 53 79
e 53 80
e 53 81
e 53 82
e 53 84
e 53 87
e 53 92
e 53 93
e 53 94
e 53 95
e 53 96
e 53 97
e 53 98
e 54 62
e 54 63
e 54 64
e 54 65
e 54 66
e 54 67
e 54 68
e 54 70
e 54 71
e 54 72
e 54 73
e 54 74
e 54 75
e 54 80
e 54 81
e 54 85
e 54 86
e 54 87
e 54 88
e 54 89
e 54 91
e 54 92
e 54 93
e 54 99
e 54 100
e 55 62
e 55 63
e 55 64
e 55 65
e 55 66
e 55 67
e 55 68
e 55 69
e 55 70
e 55 71
e 55 72
e 55 73
e 55 74
e 55 75
e 55 76
e 55 77
e 55 78
e 55 80
e 55 81
e 55 82
e 55 83
e 55 85
e 55 87
e 55 88
e 55 89
e 55 90
e 55 92
e 55 93
e 55 94
e 55 95
e 55 96
e 55 97
e 55 100
e 56 62
e 56 63
e 56 64
e 56 65
e 56 66
e 56 67
e 56 68
e 56 69
e 56 70
e 56 71
e 56 72
e 56 74
e 56 75
e 56 76
e 56 79
e 56 80
e 56 82
e 56 85
e 56 89
e 56 90
e 56 91
e 56 93
e 56 95
e 56 96
e 56 99
e 56 97
e 56 100
e 57 62
e 57 63
e 57 64
e 57 65
e 57 66
e 57 67
e 57 68
e 57 69
e 57 70
e 57 71
e 57 72
e 57 74
e 57 75
e 57 76
e 57 77
e 57 78
e 57 79
e 57 80
e 57 81
e 57 83
e 57 85
e 57 86
e 57 87
e 57 88
e 57 90
e 57 91
e 57 92
e 57 96
e 57 97
e 57 98
e 58 62
e 58 63
e 58 64
e 58 65
e 58 66
e 58 67
e 58 68
e 58 69
e 58 70
e 58 71
e 58 72
e 58 73
e 58 74
e 58 76
e 58 78
e 58 79
e 58 80
e 58 83
e 58 87
e 58 89
e 58 90
e 58 91
e 58 95
e 58 96
e 58 99
e 58 97
e 59 62
e 59 63
e 59 64
e 59 65
e 59 66
e 59 67
e 59 68
e 59 69
e 59 70
e 59 72
e 59 73
e 59 74
e 59 75
e 59 76
e 59 78
e 59 79
e 59 80
e 59 81
e 59 82
e 59 83
e 59 85
e 59 86
e 59 87
e 59 88
e 59 89
e 59 91
e 59 93
e 59 94
e 59 99
e 59 97
e 59 100
e 59 98
e 60 62
e 60 64
e 60 65
e 60 67
e 60 68
e 60 69
e 60 70
e 60 72
e 60 73
e 60 74
e 60 75
e 60 76
e 60 80
e 60 84
e 60 85
e 60 87
e 60 90
e 60 91
e 60 93
e 60 96
e 60 100
e 60 98
e 61 62
e 61 63
e 61 64
e 61 65
e 61 66
e 61 67
e 61 68
e 61 70
e 61 71
e 61 73
e 61 74
e 61 75
e 61 77
e 61 78
e 61 81
e 61 83
e 61 87
e 61 88
e 61 90
e 61 92
e 61 95
e 61 96
e 61 98
e 62 63
e 62 64
e 62 65
e 62 66
e 62 67
e 62 68
e 62 69
e 62 70
e 62 71
e 62 72
e 62 73
e 62 74
e 62 75
e 62 76
e 62 77
e 62 78
e 62 79
e 62 80
e 62 81
e 62 82
e 62 83
e 62 84
e 62 85
e 62 86
e 62 87
e 62 88
e 62 89
e 62 90
e 62 91
e 62 93
e 62 94
e 62 95
e 62 96
e 62 99
e 62 97
e 62 100
e 62 98
e 63 64
e 63 65
e 63 66
e 63 67
e 63 68
e 63 69
e 63 70
e 63 71
e 63 72
e 63 73
e 63 74
e 63 75
e 63 76
e 63 77
e 63 78
e 63 79
e 63 80
e 63 81
e 63 82
e 63 83
e 63 84
e 63 85
e 63 86
e 63 87
e 63 88
e 63 89
e 63 90
e 63 91
e 63 92
e 63 93
e 63 94
e 63 95
e 63 96
e 63 99
e 63 97
e 63 100
e 63 98
e 64 65
e 64 66
e 64 67
e 64 68
e 64 69
e 64 70
e 64 71
e 64 72
e 64 73
e 64 74
e 64 75
e 64 76
e 64 77
e 64 78
e 64 79
e 64 80
e 64 81
e 64 82
e 64 83
e 64 84
e 64 85
e 64 86
e 64 87
e 64 88
e 64 89
e 64 90
e 64 91
e 64 93
e 64 94
e 64 95
e 64 99
e 64 97
e 64 100
e 64 98
e 65 66
e 65 67
e 65 68
e 65 69
e 65 70
e 65 71
e 65 72
e 65 73
e 65 74
e 65 75
e 65 76
e 65 77
e 65 78
e 65 79
e 65 80
e 65 81
e 65 82
e 65 83
e 65 84
e 65 85
e 65 86
e 65 87
e 65 88
e 65 89
e 65 91
e 65 93
e 65 94
e 65 95
e 65 96
e 65 99
e 65 97
e 65 100
e 65 98
e 66 67
e 66 68
e 66 69
e 66 70
e 66 71
e 66 72
e 66 73
e 66 74
e 66 75
e 66 76
e 66 77
e 66 78
e 66 79
e 66 80
e 66 81
e 66 82
e 66 83
e 66 84
e 66 85
e 66 86
e 66 87
e 66 88
e 66 89
e 66 90
e 66 91
e 66 92
e 66 93
e 66 94
e 66 95
e 66 96
e 66 99
e 66 97
e 66 100
e 66 98
e 67 68
e 67 69
e 67 70
e 67 71
e 67 72
e 67 73
e 67 74
e 67 75
e 67 76
e 67 77
e 67 78
e 67 79
e 67 80
e 67 81
e 67 82
e 67 83
e 67 84
e 67 85
e 67 86
e 67 87
e 67 88
e 67 89
e 67 90
e 67 91
e 67 92
e 67 93
e 67 94
e 67 95
e 67 96
e 67 99
e 67 100
e 67 98
e 68 69
e 68 70
e 68 71
e 68 72
e 68 73
e 68 74
e 68 75
e 68 76
e 68 77
e 68 78
e 68 79
e 68 80
e 68 81
e 68 82
e 68 83
e 68 84
e 68 85
e 68 86
e 68 87
e 68 88
e 68 89
e 68 90
e 68 91
e 68 92
e 68 93
e 68 94
e 68 95
e 68 96
e 68 99
e 68 97
e 68 100
e 68 98
e 69 70
e 69 71
e 69 72
e 69 73
e 69 74
e 69 75
e 69 76
e 69 77
e 69 78
e 69 79
e 69 80
e 69 81
e 69 82
e 69 83
e 69 84
e 69 85
e 69 86
e 69 87
e 69 89
e 69 90
e 69 91
e 69 92
e 69 93
e 69 94
e 69 95
e 69 96
e 69 99
e 69 97
e 69 100
e 69 98
e 70 71
e 70 72
e 70 73
e 70 74
e 70 75
e 70 76
e 70 77
e 70 78
e 70 79
e 70 80
e 70 81
e 70 82
e 70 83
e 70 84
e 70 85
e 70 86
e 70 87
e 70 89
e 70 90
e 70 91
e 70 92
e 70 93
e 70 94
e 70 95
e 70 96
e 70 99
e 70 97
e 70 100
e 70 98
e 71 72
e 71 73
e 71 74
e 71 75
e 71 76
e 71 77
e 71 78
e 71 79
e 71 80
e 71 81
e 71 82
e 71 83
e 71 84
e 71 85
e 71 86
e 71 87
e 71 88
e 71 90
e 71 91
e 71 92
e 71 93
e 71 95
e 71 96
e 71 99
e 71 97
e 71 100
e 71 98
e 72 73
e 72 74
e 72 75
e 72 76
e 72 77
e 72 78
e 72 79
e 72 80
e 72 81
e 72 82
e 72 83
e 72 84
e 72 85
e 72 88
e 72 89
e 72 91
e 72 92
e 72 94
e 72 96
e 72 97
e 72 100
e 73 74
e 73 75
e 73 76
e 73 77
e 73 78
e 73 79
e 73 80
e 73 81
e 73 82
e 73 83
e 73 84
e 73 85
e 73 86
e 73 87
e 73 88
e 73 89
e 73 90
e 73 91
e 73 92
e 73 93
e 73 94
e 73 95
e 73 96
e 73 99
e 73 97
e 73 100
e 74 75
e 74 76
e 74 77
e 74 78
e 74 79
e 74 80
e 74 81
e 74 82
e 74 83
e 74 84
e 74 85
e 74 86
e 74 87
e 74 88
e 74 89
e 74 90
e 74 91
e 74 92
e 74 93
e 74 94
e 74 95
e 74 99
e 74 97
e 74 100
e 74 98
e 75 76
e 75 77
e 75 78
e 75 79
e 75 80
e 75 81
e 75 82
e 75 83
e 75 84
e 75 85
e 75 86
e 75 87
e 75 88
e 75 89
e 75 90
e 75 91
e 75 93
e 75 94
e 75 96
e 75 99
e 75 97
e 75 100
e 75 98
e 76 77
e 76 78
e 76 79
e 76 80
e 76 81
e 76 82
e 76 83
e 76 84
e 76 85
e 76 86
e 76 87
e 76 88
e 76 89
e 76 90
e 76 91
e 76 92
e 76 93
e 76 94
e 76 95
e 76 96
e 76 99
e 76 97
e 76 100
e 76 98
e 77 78
e 77 79
e 77 80
e 77 81
e 77 82
e 77 83
e 77 84
e 77 85
e 77 87
e 77 88
e 77 89
e 77 90
e 77 91
e 77 92
e 77 93
e 77 94
e 77 95
e 77 96
e 77 99
e 77 100
e 78 79
e 78 80
e 78 82
e 78 83
e 78 84
e 78 85
e 78 86
e 78 87
e 78 88
e 78 89
e 78 90
e 78 91
e 78 92
e 78 93
e 78 94
e 78 95
e 78 96
e 78 99
e 78 97
e 78 100
e 78 98
e 79 80
e 79 81
e 79 82
e 79 83
e 79 84
e 79 85
e 79 86
e 79 87
e 79 88
e 79 89
e 79 90
e 79 91
e 79 92
e 79 93
e 79 94
e 79 95
e 79 96
e 79 99
e 79 97
e 79 98
e 80 81
e 80 82
e 80 83
e 80 84
e 80 85
e 80 86
e 80 87
e 80 88
e 80 89
e 80 90
e 80 91
e 80 92
e 80 93
e 80 94
e 80 95
e 80 96
e 80 99
e 80 97
e 80 100
e 80 98
e 81 82
e 81 83
e 81 84
e 81 85
e 81 86
e 81 87
e 81 88
e 81 92
e 81 93
e 81 95
e 81 96
e 81 99
e 81 97
e 81 100
e 82 83
e 82 84
e 82 85
e 82 86
e 82 87
e 82 88
e 82 89
e 82 90
e 82 91
e 82 92
e 82 93
e 82 94
e 82 95
e 82 96
e 82 99
e 82 97
e 82 100
e 82 98
e 83 84
e 83 85
e 83 86
e 83 87
e 83 88
e 83 89
e 83 90
e 83 91
e 83 92
e 83 93
e 83 96
e 83 99
e 83 97
e 84 85
e 84 86
e 84 87
e 84 88
e 84 89
e 84 90
e 84 91
e 84 92
e 84 93
e 84 94
e 84 95
e 84 97
e 84 100
e 85 86
e 85 87
e 85 88
e 85 89
e 85 90
e 85 91
e 85 92
e 85 93
e 85 96
e 85 99
e 85 97
e 85 100
e 85 98
e 86 87
e 86 88
e 86 89
e 86 91
e 86 92
e 86 93
e 86 94
e 86 95
e 86 96
e 86 99
e 86 100
e 86 98
e 87 88
e 87 89
e 87 90
e 87 91
e 87 95
e 87 96
e 87 99
e 87 97
e 87 100
e 87 98
e 88 89
e 88 90
e 88 91
e 88 92
e 88 93
e 88 94
e 88 95
e 88 96
e 88 99
e 88 100
e 88 98
e 89 90
e 89 91
e 89 92
e 89 94
e 89 96
e 89 99
e 89 97
e 89 100
e 90 91
e 90 92
e 90 94
e 90 99
e 90 100
e 90 98
e 91 92
e 91 93
e 91 94
e 91 96
e 91 99
e 91 97
e 91 100
e 92 93
e 92 94
e 92 95
e 92 96
e 92 99
e 92 100
e 92 98
e 93 94
e 93 95
e 93 96
e 93 99
e 93 97
e 93 100
e 93 98
e 94 95
e 94 99
e 94 100
e 94 98
e 95 96
e 95 97
e 95 100
e 95 98
e 96 99
e 96 97
e 96 100
e 96 98
e 99 97
e 99 98
e 97 100
e 97 98
e 100 98
